
Gurobi 7.0.2 (linux64, Matlab) logging started Sun Sep  2 08:37:59 2018


Gurobi 7.0.2 (linux64) logging started Sun Sep  2 08:37:59 2018

Optimize a model with 5409 rows, 4443 columns and 582390 nonzeros
Coefficient statistics:
  Matrix range     [1e+00, 1e+01]
  Objective range  [0e+00, 0e+00]
  Bounds range     [1e+00, 1e+00]
  RHS range        [1e+00, 2e+01]
Iteration    Objective       Primal Inf.    Dual Inf.      Time
       0    0.0000000e+00   0.000000e+00   0.000000e+00      0s

Solved in 0 iterations and 0.02 seconds
Optimal objective  0.000000000e+00
